<?xml version="1.0" encoding="UTF-8"?><osil xmlns="os.optimizationservices.org" xmlns:xsi="http://www.w3.org/2001/XMLSchema-instance" xsi:schemaLocation="os.optimizationservices.org http://www.optimizationservices.org/schemas/2.0/OSiL.xsd"><instanceHeader><name>nvs16</name></instanceHeader><instanceData><variables numberOfVariables="2"><var name="i1" type="I" ub="200"/><var name="i2" type="I" ub="200"/></variables><objectives><obj maxOrMin="min" name="defObj_objvar" numberOfObjCoef="0"/></objectives><nonlinearExpressions numberOfNonlinearExpressions="1"><nl idx="-1"><sum><square><sum><product><variable idx="0" coef="-1"/><sum><number value="1"/><variable idx="1" coef="-1"/></sum></product><number value="1.5"/></sum></square><square><sum><product><sum><negate><square><variable idx="1"/></square></negate><number value="1"/></sum><variable idx="0" coef="-1"/></product><number value="2.25"/></sum></square><square><sum><product><sum><negate><power><variable idx="1"/><number value="3"/></power></negate><number value="1"/></sum><variable idx="0" coef="-1"/></product><number value="2.625"/></sum></square></sum></nl></nonlinearExpressions></instanceData></osil>